BAYES
625
2 2 2 2 2 2 2 2 2 2 2 2 2 2 2 2 2 2 2 2 2 2 2 2 2 2 2 2 2 2 2 2 2 2 2 2 2 2 2 2 2 2 2 2 2 2 2 2 2 2 2 2 2 2 2 2 2 2 2 2 2 2 2 2 2 2 2 2 2 2 2 2 2 2 2 2 2 2 2 2 2 2 2 2 2 2 2 2 2 2 2 2 2 2 2 2 2 2 2 2 2 2 2 2 2 2 2 2 2 2 2 2 2 2 2 2 2 2 2 2 2 2 2 2 2 2 2 2 2 2 2 2 2 2 2 2 2 2 2 2 2 2 2 2 2 2 2 2 2 2 2 2 2 2 2 2 2 2 2 2 2 2 2 2 2 2 2 2 2 2 2 2 2 2 2 2 2 2 2 2 2 2 2 2 2 2 2 2 2 2 2 2 2 2 2 2 2 2 2 2 2 2 2 2 2 2 2 2 2 2 2 2 2 2 2 2 2 2 2 2 2 2 2 2 2 2 2 2 2 2 2 2 2 2 2 2 2 2 2 2 2 2 2 2 2 2 2 2 2 2 2 2 2 2 2 2 2 2 2 2 2 2 2 2 2 2 2 2 2 2 2 2 2 2 2 2 2 2 2 2 2 2 2 2 2 2 2 2 2 2 2 2 2 2 2 2 2 2 2 2 2 2 2 2 2 2 2 2 2 2 2 2 2 2 2 2 2 2 2 2 2 2 2 2 2 2 2 2 2 2 2 2 2 2 2 2 2 2 2 2 2 2 2 2 2 2 2 2 2 2 2 2 2 2 2 2 2 2 2 2 2 2 2 2 2 2 2 2 2 2 2 2 2 2 2 2 2 2 2 2 2 2 2 2 2 2 2 2 2 2 2 2 2 2 2 2 2 2 2 2 2 2 2 2 2 2 2 2 2 2 2 2 2 2 2 2 2 2 2 2 2 2 2 2 2 2 2 2 2 2 2 2 2 2 2 2 2 2 2 2 2 2 2 2 2 2 2 2 2 2 2 2 2 2 2 2 2 2 2 2 2 2 2 2 2 2 2 2 2 2 2 2 2 2 2 2 2 2 2 2 2 2 2 2 2 2 2 2 2 2 2 2 2 2 2 2 2 2 2 2 2 2 2 2 2 2 2 2 2 2 2 2 2 2 2 2 2 2 2 2 2 2 2 2 2 2 2 2 2 2 2 2 2 2 2 2 2 2 2 2 2 2 2 2 2 2 2 2 2 2 2 2 2 2 2 2 2 2 2 2 2 2 2 2 2 2 2 2 2 2 2 2 2 2 2 2 2 2 2 2 2 2 2 2 2 2 2 2 2 2 2 2 2 2 2 2 2 2 2 2 2 2 2 2 2 2 2 2 2 2 2 2 2 2 2 2 2 2 2 2 2 2 2 2 2
625
3 1 25 0
3 2 26 1
3 3 27 2
3 4 28 3
3 5 29 4
3 6 30 5
3 7 31 6
3 8 32 7
3 9 33 8
3 10 34 9
3 11 35 10
3 12 36 11
3 13 37 12
3 14 38 13
3 15 39 14
3 16 40 15
3 17 41 16
3 18 42 17
3 19 43 18
3 20 44 19
3 21 45 20
3 22 46 21
3 23 47 22
3 24 48 23
2 25 24
3 26 50 25
3 27 51 26
3 28 52 27
3 29 53 28
3 30 54 29
3 31 55 30
3 32 56 31
3 33 57 32
3 34 58 33
3 35 59 34
3 36 60 35
3 37 61 36
3 38 62 37
3 39 63 38
3 40 64 39
3 41 65 40
3 42 66 41
3 43 67 42
3 44 68 43
3 45 69 44
3 46 70 45
3 47 71 46
3 48 72 47
3 49 73 48
2 50 49
3 51 75 50
3 52 76 51
3 53 77 52
3 54 78 53
3 55 79 54
3 56 80 55
3 57 81 56
3 58 82 57
3 59 83 58
3 60 84 59
3 61 85 60
3 62 86 61
3 63 87 62
3 64 88 63
3 65 89 64
3 66 90 65
3 67 91 66
3 68 92 67
3 69 93 68
3 70 94 69
3 71 95 70
3 72 96 71
3 73 97 72
3 74 98 73
2 75 74
3 76 100 75
3 77 101 76
3 78 102 77
3 79 103 78
3 80 104 79
3 81 105 80
3 82 106 81
3 83 107 82
3 84 108 83
3 85 109 84
3 86 110 85
3 87 111 86
3 88 112 87
3 89 113 88
3 90 114 89
3 91 115 90
3 92 116 91
3 93 117 92
3 94 118 93
3 95 119 94
3 96 120 95
3 97 121 96
3 98 122 97
3 99 123 98
2 100 99
3 101 125 100
3 102 126 101
3 103 127 102
3 104 128 103
3 105 129 104
3 106 130 105
3 107 131 106
3 108 132 107
3 109 133 108
3 110 134 109
3 111 135 110
3 112 136 111
3 113 137 112
3 114 138 113
3 115 139 114
3 116 140 115
3 117 141 116
3 118 142 117
3 119 143 118
3 120 144 119
3 121 145 120
3 122 146 121
3 123 147 122
3 124 148 123
2 125 124
3 126 150 125
3 127 151 126
3 128 152 127
3 129 153 128
3 130 154 129
3 131 155 130
3 132 156 131
3 133 157 132
3 134 158 133
3 135 159 134
3 136 160 135
3 137 161 136
3 138 162 137
3 139 163 138
3 140 164 139
3 141 165 140
3 142 166 141
3 143 167 142
3 144 168 143
3 145 169 144
3 146 170 145
3 147 171 146
3 148 172 147
3 149 173 148
2 150 149
3 151 175 150
3 152 176 151
3 153 177 152
3 154 178 153
3 155 179 154
3 156 180 155
3 157 181 156
3 158 182 157
3 159 183 158
3 160 184 159
3 161 185 160
3 162 186 161
3 163 187 162
3 164 188 163
3 165 189 164
3 166 190 165
3 167 191 166
3 168 192 167
3 169 193 168
3 170 194 169
3 171 195 170
3 172 196 171
3 173 197 172
3 174 198 173
2 175 174
3 176 200 175
3 177 201 176
3 178 202 177
3 179 203 178
3 180 204 179
3 181 205 180
3 182 206 181
3 183 207 182
3 184 208 183
3 185 209 184
3 186 210 185
3 187 211 186
3 188 212 187
3 189 213 188
3 190 214 189
3 191 215 190
3 192 216 191
3 193 217 192
3 194 218 193
3 195 219 194
3 196 220 195
3 197 221 196
3 198 222 197
3 199 223 198
2 200 199
3 201 225 200
3 202 226 201
3 203 227 202
3 204 228 203
3 205 229 204
3 206 230 205
3 207 231 206
3 208 232 207
3 209 233 208
3 210 234 209
3 211 235 210
3 212 236 211
3 213 237 212
3 214 238 213
3 215 239 214
3 216 240 215
3 217 241 216
3 218 242 217
3 219 243 218
3 220 244 219
3 221 245 220
3 222 246 221
3 223 247 222
3 224 248 223
2 225 224
3 226 250 225
3 227 251 226
3 228 252 227
3 229 253 228
3 230 254 229
3 231 255 230
3 232 256 231
3 233 257 232
3 234 258 233
3 235 259 234
3 236 260 235
3 237 261 236
3 238 262 237
3 239 263 238
3 240 264 239
3 241 265 240
3 242 266 241
3 243 267 242
3 244 268 243
3 245 269 244
3 246 270 245
3 247 271 246
3 248 272 247
3 249 273 248
2 250 249
3 251 275 250
3 252 276 251
3 253 277 252
3 254 278 253
3 255 279 254
3 256 280 255
3 257 281 256
3 258 282 257
3 259 283 258
3 260 284 259
3 261 285 260
3 262 286 261
3 263 287 262
3 264 288 263
3 265 289 264
3 266 290 265
3 267 291 266
3 268 292 267
3 269 293 268
3 270 294 269
3 271 295 270
3 272 296 271
3 273 297 272
3 274 298 273
2 275 274
3 276 300 275
3 277 301 276
3 278 302 277
3 279 303 278
3 280 304 279
3 281 305 280
3 282 306 281
3 283 307 282
3 284 308 283
3 285 309 284
3 286 310 285
3 287 311 286
3 288 312 287
3 289 313 288
3 290 314 289
3 291 315 290
3 292 316 291
3 293 317 292
3 294 318 293
3 295 319 294
3 296 320 295
3 297 321 296
3 298 322 297
3 299 323 298
2 300 299
3 301 325 300
3 302 326 301
3 303 327 302
3 304 328 303
3 305 329 304
3 306 330 305
3 307 331 306
3 308 332 307
3 309 333 308
3 310 334 309
3 311 335 310
3 312 336 311
3 313 337 312
3 314 338 313
3 315 339 314
3 316 340 315
3 317 341 316
3 318 342 317
3 319 343 318
3 320 344 319
3 321 345 320
3 322 346 321
3 323 347 322
3 324 348 323
2 325 324
3 326 350 325
3 327 351 326
3 328 352 327
3 329 353 328
3 330 354 329
3 331 355 330
3 332 356 331
3 333 357 332
3 334 358 333
3 335 359 334
3 336 360 335
3 337 361 336
3 338 362 337
3 339 363 338
3 340 364 339
3 341 365 340
3 342 366 341
3 343 367 342
3 344 368 343
3 345 369 344
3 346 370 345
3 347 371 346
3 348 372 347
3 349 373 348
2 350 349
3 351 375 350
3 352 376 351
3 353 377 352
3 354 378 353
3 355 379 354
3 356 380 355
3 357 381 356
3 358 382 357
3 359 383 358
3 360 384 359
3 361 385 360
3 362 386 361
3 363 387 362
3 364 388 363
3 365 389 364
3 366 390 365
3 367 391 366
3 368 392 367
3 369 393 368
3 370 394 369
3 371 395 370
3 372 396 371
3 373 397 372
3 374 398 373
2 375 374
3 376 400 375
3 377 401 376
3 378 402 377
3 379 403 378
3 380 404 379
3 381 405 380
3 382 406 381
3 383 407 382
3 384 408 383
3 385 409 384
3 386 410 385
3 387 411 386
3 388 412 387
3 389 413 388
3 390 414 389
3 391 415 390
3 392 416 391
3 393 417 392
3 394 418 393
3 395 419 394
3 396 420 395
3 397 421 396
3 398 422 397
3 399 423 398
2 400 399
3 401 425 400
3 402 426 401
3 403 427 402
3 404 428 403
3 405 429 404
3 406 430 405
3 407 431 406
3 408 432 407
3 409 433 408
3 410 434 409
3 411 435 410
3 412 436 411
3 413 437 412
3 414 438 413
3 415 439 414
3 416 440 415
3 417 441 416
3 418 442 417
3 419 443 418
3 420 444 419
3 421 445 420
3 422 446 421
3 423 447 422
3 424 448 423
2 425 424
3 426 450 425
3 427 451 426
3 428 452 427
3 429 453 428
3 430 454 429
3 431 455 430
3 432 456 431
3 433 457 432
3 434 458 433
3 435 459 434
3 436 460 435
3 437 461 436
3 438 462 437
3 439 463 438
3 440 464 439
3 441 465 440
3 442 466 441
3 443 467 442
3 444 468 443
3 445 469 444
3 446 470 445
3 447 471 446
3 448 472 447
3 449 473 448
2 450 449
3 451 475 450
3 452 476 451
3 453 477 452
3 454 478 453
3 455 479 454
3 456 480 455
3 457 481 456
3 458 482 457
3 459 483 458
3 460 484 459
3 461 485 460
3 462 486 461
3 463 487 462
3 464 488 463
3 465 489 464
3 466 490 465
3 467 491 466
3 468 492 467
3 469 493 468
3 470 494 469
3 471 495 470
3 472 496 471
3 473 497 472
3 474 498 473
2 475 474
3 476 500 475
3 477 501 476
3 478 502 477
3 479 503 478
3 480 504 479
3 481 505 480
3 482 506 481
3 483 507 482
3 484 508 483
3 485 509 484
3 486 510 485
3 487 511 486
3 488 512 487
3 489 513 488
3 490 514 489
3 491 515 490
3 492 516 491
3 493 517 492
3 494 518 493
3 495 519 494
3 496 520 495
3 497 521 496
3 498 522 497
3 499 523 498
2 500 499
3 501 525 500
3 502 526 501
3 503 527 502
3 504 528 503
3 505 529 504
3 506 530 505
3 507 531 506
3 508 532 507
3 509 533 508
3 510 534 509
3 511 535 510
3 512 536 511
3 513 537 512
3 514 538 513
3 515 539 514
3 516 540 515
3 517 541 516
3 518 542 517
3 519 543 518
3 520 544 519
3 521 545 520
3 522 546 521
3 523 547 522
3 524 548 523
2 525 524
3 526 550 525
3 527 551 526
3 528 552 527
3 529 553 528
3 530 554 529
3 531 555 530
3 532 556 531
3 533 557 532
3 534 558 533
3 535 559 534
3 536 560 535
3 537 561 536
3 538 562 537
3 539 563 538
3 540 564 539
3 541 565 540
3 542 566 541
3 543 567 542
3 544 568 543
3 545 569 544
3 546 570 545
3 547 571 546
3 548 572 547
3 549 573 548
2 550 549
3 551 575 550
3 552 576 551
3 553 577 552
3 554 578 553
3 555 579 554
3 556 580 555
3 557 581 556
3 558 582 557
3 559 583 558
3 560 584 559
3 561 585 560
3 562 586 561
3 563 587 562
3 564 588 563
3 565 589 564
3 566 590 565
3 567 591 566
3 568 592 567
3 569 593 568
3 570 594 569
3 571 595 570
3 572 596 571
3 573 597 572
3 574 598 573
2 575 574
3 576 600 575
3 577 601 576
3 578 602 577
3 579 603 578
3 580 604 579
3 581 605 580
3 582 606 581
3 583 607 582
3 584 608 583
3 585 609 584
3 586 610 585
3 587 611 586
3 588 612 587
3 589 613 588
3 590 614 589
3 591 615 590
3 592 616 591
3 593 617 592
3 594 618 593
3 595 619 594
3 596 620 595
3 597 621 596
3 598 622 597
3 599 623 598
2 600 599
2 625 600
2 626 601
2 627 602
2 628 603
2 629 604
2 630 605
2 631 606
2 632 607
2 633 608
2 634 609
2 635 610
2 636 611
2 637 612
2 638 613
2 639 614
2 640 615
2 641 616
2 642 617
2 643 618
2 644 619
2 645 620
2 646 621
2 647 622
2 648 623
1  624
8
1 0 0 1 1 0 0 1
8
0 1 0 1 1 0 0 1
8
0.48269096436686204 0.5173090356331379 0.5522241024748131 0.4477758975251868 0.7524392947252979 0.24756070527470217 0.2335974918376381 0.7664025081623619
8
0 1 0 1 0 1 1 0
8
0.4130196022098156 0.5869803977901844 0.5250933891449783 0.4749066108550218 0.6798988626618688 0.3201011373381311 0.21630316352762247 0.7836968364723775
8
1 0 0 1 0 1 1 0
8
0 1 0 1 0 1 1 0
8
0 1 1 0 0 1 1 0
8
1 0 1 0 1 0 1 0
8
1 0 0 1 0 1 0 1
8
0 1 0 1 1 0 0 1
8
0 1 1 0 1 0 0 1
8
1 0 1 0 0 1 0 1
8
1 0 1 0 0 1 1 0
8
1 0 1 0 0 1 0 1
8
0.42810413469408276 0.5718958653059172 0.3578666514219403 0.6421333485780596 0.35341537123115924 0.6465846287688408 0.11402586151308311 0.8859741384869169
8
0.06707162663339955 0.9329283733666004 0.06987626133692892 0.9301237386630711 0.48072721315744593 0.5192727868425541 0.4859154348323506 0.5140845651676494
8
0 1 1 0 0 1 1 0
8
0 1 1 0 0 1 0 1
8
0 1 1 0 0 1 0 1
8
0 1 1 0 1 0 1 0
8
0 1 0 1 1 0 1 0
8
0 1 0 1 1 0 1 0
8
1 0 0 1 0 1 1 0
4
0 1 0 1
8
1 0 0 1 1 0 1 0
8
0 1 0 1 1 0 1 0
8
0 1 0 1 1 0 0 1
8
1 0 0 1 0 1 0 1
8
1 0 1 0 1 0 0 1
8
0 1 0 1 0 1 1 0
8
0 1 1 0 0 1 1 0
8
1 0 1 0 1 0 0 1
8
1 0 0 1 1 0 0 1
8
1 0 1 0 1 0 0 1
8
0 1 0 1 0 1 1 0
8
0 1 1 0 1 0 0 1
8
0 1 0 1 0 1 0 1
8
1 0 1 0 0 1 1 0
8
0 1 1 0 1 0 0 1
8
1 0 1 0 0 1 0 1
8
1 0 0 1 1 0 0 1
8
0 1 1 0 1 0 1 0
8
1 0 0 1 0 1 0 1
8
1 0 0 1 1 0 0 1
8
0 1 0 1 0 1 0 1
8
1 0 1 0 1 0 1 0
8
1 0 0 1 1 0 1 0
8
0 1 0 1 1 0 0 1
4
0 1 1 0
8
1 0 1 0 1 0 0 1
8
1 0 1 0 1 0 0 1
8
0.5847036365034666 0.4152963634965334 0.7464289613157691 0.253571038684231 0.4400233802935786 0.5599766197064214 0.19220128444376572 0.8077987155562343
8
0 1 1 0 0 1 1 0
8
1 0 0 1 0 1 0 1
8
0.5205328469566123 0.47946715304338766 0.5882580175260745 0.41174198247392535 0.8453721244220224 0.1546278755779776 0.8747578456398177 0.12524215436018224
8
1 0 1 0 1 0 0 1
8
1 0 0 1 1 0 0 1
8
0 1 0 1 1 0 1 0
8
1 0 1 0 0 1 0 1
8
1 0 1 0 1 0 1 0
8
0 1 0 1 1 0 1 0
8
0 1 1 0 0 1 0 1
8
1 0 1 0 0 1 1 0
8
1 0 1 0 1 0 1 0
8
1 0 0 1 1 0 1 0
8
1 0 0 1 1 0 0 1
8
0 1 0 1 1 0 1 0
8
1 0 0 1 0 1 0 1
8
1 0 1 0 1 0 0 1
8
1 0 1 0 0 1 0 1
8
0 1 1 0 0 1 0 1
8
1 0 1 0 1 0 0 1
8
0 1 0 1 0 1 1 0
4
0.46839676464390023 0.5316032353560997 0.45847782172487417 0.5415221782751259
8
1 0 0 1 1 0 1 0
8
1 0 0 1 0 1 0 1
8
1 0 1 0 1 0 0 1
8
0.5263375464584445 0.4736624535415554 0.14555224702576072 0.8544477529742392 0.5023276872623205 0.49767231273767953 0.46355205824581647 0.5364479417541834
8
1 0 0 1 0 1 0 1
8
1 0 1 0 0 1 0 1
8
1 0 0 1 0 1 0 1
8
0 1 0 1 1 0 1 0
8
0 1 1 0 1 0 1 0
8
1 0 0 1 0 1 0 1
8
0.10537153050651728 0.8946284694934827 0.5003359208788093 0.4996640791211907 0.8157574837514734 0.18424251624852658 0.6202762496025742 0.37972375039742573
8
0 1 1 0 1 0 0 1
8
1 0 0 1 0 1 0 1
8
0 1 1 0 0 1 0 1
8
0 1 0 1 0 1 0 1
8
0 1 0 1 0 1 0 1
8
0 1 0 1 1 0 0 1
8
1 0 1 0 0 1 0 1
8
0 1 0 1 0 1 1 0
8
0 1 1 0 1 0 1 0
8
1 0 1 0 1 0 1 0
8
1 0 0 1 1 0 0 1
8
0 1 0 1 0 1 1 0
8
1 0 0 1 0 1 0 1
4
0 1 1 0
8
1 0 1 0 0 1 0 1
8
0 1 0 1 0 1 0 1
8
0 1 1 0 1 0 1 0
8
0 1 0 1 0 1 1 0
8
0 1 1 0 0 1 0 1
8
0 1 1 0 0 1 1 0
8
1 0 1 0 1 0 1 0
8
0 1 0 1 0 1 0 1
8
0 1 0 1 0 1 1 0
8
0 1 0 1 0 1 1 0
8
0 1 0 1 0 1 0 1
8
0 1 1 0 1 0 1 0
8
1 0 1 0 0 1 1 0
8
1 0 1 0 0 1 0 1
8
0 1 1 0 1 0 1 0
8
1 0 1 0 0 1 1 0
8
1 0 0 1 0 1 1 0
8
1 0 1 0 1 0 1 0
8
1 0 1 0 1 0 1 0
8
1 0 1 0 1 0 1 0
8
0 1 0 1 1 0 1 0
8
0 1 1 0 1 0 0 1
8
0 1 1 0 0 1 0 1
8
0.5305800572771284 0.46941994272287163 0.7349723677675104 0.2650276322324897 0.283160675492807 0.716839324507193 0.18268405986152647 0.8173159401384734
4
0 1 0 1
8
1 0 1 0 0 1 0 1
8
1 0 1 0 0 1 0 1
8
0 1 1 0 1 0 0 1
8
0 1 1 0 0 1 1 0
8
0 1 0 1 1 0 0 1
8
0 1 1 0 0 1 1 0
8
1 0 1 0 0 1 1 0
8
1 0 0 1 0 1 0 1
8
0 1 1 0 1 0 0 1
8
1 0 1 0 1 0 1 0
8
1 0 1 0 1 0 0 1
8
1 0 1 0 0 1 1 0
8
0 1 0 1 1 0 0 1
8
0 1 1 0 1 0 0 1
8
1 0 1 0 0 1 1 0
8
0 1 0 1 1 0 0 1
8
0 1 0 1 1 0 0 1
8
1 0 0 1 1 0 0 1
8
1 0 1 0 0 1 1 0
8
0 1 0 1 1 0 0 1
8
0 1 1 0 0 1 1 0
8
0 1 1 0 0 1 0 1
8
1 0 1 0 0 1 1 0
8
0 1 0 1 1 0 1 0
4
0 1 1 0
8
1 0 0 1 0 1 1 0
8
1 0 0 1 1 0 1 0
8
0 1 0 1 1 0 0 1
8
0 1 1 0 1 0 0 1
8
0 1 1 0 1 0 1 0
8
1 0 1 0 0 1 0 1
8
0 1 0 1 0 1 1 0
8
0 1 0 1 0 1 0 1
8
0 1 0 1 1 0 1 0
8
1 0 1 0 1 0 1 0
8
1 0 0 1 1 0 0 1
8
1 0 1 0 1 0 0 1
8
0 1 0 1 0 1 0 1
8
0 1 1 0 0 1 1 0
8
1 0 1 0 0 1 0 1
8
0.5707894848317471 0.429210515168253 0.34731088093649803 0.652689119063502 0.7584737698186144 0.2415262301813857 0.8455248679215923 0.15447513207840777
8
0 1 1 0 0 1 1 0
8
0 1 1 0 0 1 1 0
8
1 0 1 0 1 0 1 0
8
0.3000777353362233 0.6999222646637767 0.21651354575450682 0.7834864542454932 0.5975134231104224 0.40248657688957756 0.5217168394021046 0.47828316059789544
8
0 1 0 1 0 1 1 0
8
0 1 1 0 1 0 0 1
8
1 0 0 1 1 0 1 0
8
1 0 0 1 0 1 1 0
4
0 1 1 0
8
1 0 1 0 1 0 1 0
8
1 0 0 1 1 0 0 1
8
0 1 0 1 0 1 0 1
8
0 1 0 1 0 1 0 1
8
0 1 1 0 0 1 0 1
8
1 0 0 1 0 1 0 1
8
1 0 0 1 1 0 1 0
8
1 0 0 1 1 0 1 0
8
0 1 0 1 1 0 1 0
8
1 0 1 0 0 1 0 1
8
0 1 1 0 0 1 1 0
8
1 0 1 0 1 0 1 0
8
0 1 1 0 1 0 0 1
8
1 0 1 0 1 0 1 0
8
0 1 0 1 1 0 1 0
8
0.2076752110728502 0.7923247889271497 0.03667511185809073 0.9633248881419093 0.8262439979621979 0.17375600203780212 0.7440050955280006 0.2559949044719993
8
1 0 1 0 1 0 1 0
8
0 1 1 0 0 1 1 0
8
0 1 1 0 0 1 1 0
8
1 0 1 0 0 1 0 1
8
0 1 1 0 1 0 0 1
8
0 1 1 0 0 1 0 1
8
1 0 0 1 0 1 1 0
8
0 1 0 1 0 1 1 0
4
1 0 1 0
8
0 1 1 0 1 0 0 1
8
1 0 0 1 0 1 0 1
8
0 1 1 0 1 0 0 1
8
0 1 1 0 0 1 0 1
8
0 1 1 0 1 0 0 1
8
0 1 0 1 0 1 0 1
8
1 0 1 0 1 0 0 1
8
0.582732510190958 0.41726748980904205 0.6774216053348193 0.3225783946651807 0.13384074288514045 0.8661592571148595 0.3207336483752055 0.6792663516247944
8
0 1 1 0 0 1 1 0
8
0 1 0 1 0 1 0 1
8
0 1 1 0 0 1 1 0
8
0 1 0 1 0 1 0 1
8
1 0 1 0 0 1 0 1
8
1 0 0 1 1 0 1 0
8
0 1 1 0 1 0 1 0
8
0 1 1 0 1 0 1 0
8
0 1 0 1 1 0 0 1
8
0 1 1 0 0 1 0 1
8
0 1 1 0 1 0 1 0
8
1 0 0 1 0 1 0 1
8
0 1 0 1 1 0 0 1
8
1 0 1 0 1 0 0 1
8
1 0 1 0 1 0 1 0
8
1 0 1 0 1 0 0 1
4
0 1 1 0
8
1 0 1 0 1 0 1 0
8
0.13724427257789681 0.8627557274221033 0.6030021345161636 0.3969978654838364 0.7485227682468198 0.25147723175318026 0.5134038070701622 0.48659619292983786
8
0 1 0 1 0 1 1 0
8
1 0 1 0 0 1 0 1
8
0 1 0 1 0 1 0 1
8
0 1 0 1 1 0 1 0
8
1 0 0 1 0 1 1 0
8
0.4069227229363632 0.5930772770636368 0.7235150014225957 0.27648499857740433 0.6119707980064868 0.3880292019935133 0.9218493608698463 0.07815063913015377
8
0 1 0 1 0 1 1 0
8
1 0 1 0 0 1 1 0
8
0 1 1 0 1 0 1 0
8
0.8866952089865128 0.11330479101348724 0.6945816261642087 0.3054183738357913 0.4621850563069616 0.5378149436930384 0.8749268523143997 0.12507314768560027
8
0 1 1 0 1 0 1 0
8
0.6916688940474912 0.3083311059525089 0.7183974643489178 0.2816025356510822 0.5156875292844282 0.4843124707155719 0.4344836441261331 0.565516355873867
8
1 0 1 0 1 0 0 1
8
0 1 1 0 0 1 1 0
8
1 0 1 0 1 0 0 1
8
1 0 1 0 1 0 1 0
8
1 0 1 0 0 1 1 0
8
1 0 0 1 0 1 1 0
8
1 0 1 0 1 0 0 1
8
1 0 0 1 1 0 0 1
8
1 0 0 1 1 0 1 0
8
1 0 1 0 0 1 0 1
4
0 1 1 0
8
1 0 1 0 0 1 0 1
8
1 0 1 0 0 1 0 1
8
0.5550183052114624 0.44498169478853766 0.32213373673136597 0.6778662632686341 0.5713702536706713 0.4286297463293287 0.5830061464026992 0.41699385359730073
8
0.17484477327712156 0.8251552267228784 0.024165867846825936 0.975834132153174 0.25447912788705357 0.7455208721129464 0.6537371270041374 0.3462628729958625
8
1 0 0 1 0 1 1 0
8
1 0 0 1 1 0 1 0
8
1 0 0 1 1 0 0 1
8
0 1 1 0 0 1 1 0
8
1 0 1 0 1 0 0 1
8
0 1 0 1 0 1 0 1
8
1 0 0 1 0 1 1 0
8
0 1 1 0 0 1 1 0
8
1 0 1 0 1 0 0 1
8
0 1 0 1 1 0 0 1
8
0 1 1 0 1 0 1 0
8
1 0 0 1 1 0 0 1
8
1 0 0 1 1 0 0 1
8
0 1 0 1 0 1 0 1
8
1 0 0 1 0 1 0 1
8
1 0 1 0 1 0 0 1
8
1 0 0 1 1 0 0 1
8
1 0 0 1 0 1 0 1
8
0 1 0 1 0 1 0 1
8
0 1 1 0 0 1 0 1
4
0 1 1 0
8
1 0 1 0 1 0 1 0
8
0 1 0 1 0 1 1 0
8
1 0 1 0 1 0 1 0
8
0.8653003835660467 0.1346996164339533 0.507010883926432 0.49298911607356793 0.2174136096069911 0.7825863903930089 0.8593433849118145 0.14065661508818555
8
0 1 1 0 1 0 0 1
8
1 0 0 1 1 0 0 1
8
0 1 0 1 1 0 0 1
8
0 1 0 1 1 0 0 1
8
1 0 1 0 0 1 1 0
8
1 0 0 1 0 1 0 1
8
0 1 0 1 1 0 0 1
8
0.44957211327148955 0.5504278867285104 0.26698963181946855 0.7330103681805314 0.28829904219803726 0.7117009578019627 0.7881780833637613 0.21182191663623873
8
1 0 0 1 1 0 0 1
8
0.9619342689540703 0.03806573104592971 0.6726598293340423 0.3273401706659576 0.08989515263339655 0.9101048473666035 0.7721085783905678 0.2278914216094321
8
0 1 1 0 0 1 1 0
8
0 1 1 0 0 1 1 0
8
0.6901870579120891 0.3098129420879109 0.848254590451636 0.15174540954836405 0.8820687561043886 0.11793124389561134 0.8673544243707392 0.13264557562926077
8
0 1 0 1 0 1 1 0
8
0.9853869027544461 0.014613097245553935 0.8957177512379121 0.10428224876208787 0.5358301261484751 0.4641698738515249 0.5656960662904632 0.43430393370953685
8
1 0 0 1 0 1 0 1
8
0 1 1 0 1 0 1 0
8
1 0 1 0 0 1 0 1
8
1 0 0 1 1 0 1 0
8
1 0 0 1 1 0 0 1
4
0 1 0 1
8
1 0 1 0 0 1 0 1
8
1 0 1 0 1 0 0 1
8
1 0 1 0 1 0 1 0
8
1 0 1 0 0 1 0 1
8
0 1 0 1 0 1 0 1
8
1 0 1 0 1 0 1 0
8
0 1 0 1 1 0 0 1
8
1 0 0 1 1 0 0 1
8
1 0 0 1 0 1 1 0
8
0.619314139504547 0.38068586049545305 0.6791216341619952 0.3208783658380048 0.22816555162028385 0.7718344483797162 0.3053788390304561 0.694621160969544
8
1 0 0 1 1 0 0 1
8
1 0 0 1 0 1 0 1
8
0 1 0 1 0 1 1 0
8
0 1 1 0 0 1 1 0
8
0 1 0 1 1 0 0 1
8
1 0 1 0 1 0 1 0
8
0.49257556830909316 0.5074244316909068 0.47567876897878164 0.5243212310212184 0.47555608072369265 0.5244439192763073 0.3569440934059417 0.6430559065940583
8
1 0 1 0 0 1 0 1
8
0 1 1 0 0 1 0 1
8
0 1 0 1 0 1 0 1
8
0 1 0 1 1 0 1 0
8
0 1 1 0 1 0 1 0
8
1 0 1 0 0 1 1 0
8
0.5952821613288201 0.40471783867118 0.4447800642499058 0.5552199357500942 0.7817941760364591 0.2182058239635408 0.7628261239735386 0.23717387602646145
4
0 1 0 1
8
1 0 0 1 0 1 0 1
8
0 1 1 0 0 1 0 1
8
0 1 0 1 0 1 1 0
8
0 1 0 1 1 0 0 1
8
0 1 0 1 1 0 1 0
8
0 1 0 1 1 0 0 1
8
0 1 0 1 1 0 0 1
8
0 1 1 0 0 1 1 0
8
0 1 0 1 0 1 0 1
8
0 1 1 0 0 1 0 1
8
0.5507907580645165 0.44920924193548356 0.08728126016196765 0.9127187398380323 0.2885227865659699 0.71147721343403 0.3416103310794299 0.65838966892057
8
1 0 0 1 1 0 0 1
8
1 0 1 0 1 0 0 1
8
0 1 0 1 0 1 0 1
8
1 0 0 1 0 1 1 0
8
1 0 0 1 1 0 1 0
8
0 1 0 1 0 1 1 0
8
0 1 1 0 1 0 0 1
8
1 0 1 0 0 1 0 1
8
0 1 0 1 1 0 1 0
8
0 1 0 1 0 1 0 1
8
0 1 0 1 1 0 0 1
8
0 1 0 1 0 1 0 1
8
0 1 1 0 0 1 0 1
4
1 0 1 0
8
0 1 0 1 1 0 1 0
8
1 0 1 0 1 0 0 1
8
1 0 0 1 1 0 1 0
8
0.6096400063964763 0.39035999360352375 0.608543002654707 0.3914569973452931 0.7528578785839861 0.24714212141601383 0.2482039230958816 0.7517960769041184
8
1 0 0 1 0 1 0 1
8
0 1 1 0 1 0 0 1
8
0.8483029168355776 0.15169708316442246 0.29532642032178413 0.7046735796782159 0.6284882780617277 0.3715117219382723 0.8195545171288114 0.18044548287118856
8
1 0 1 0 0 1 0 1
8
1 0 1 0 0 1 1 0
8
0 1 1 0 1 0 1 0
8
0.5279257168267341 0.472074283173266 0.028863681598128826 0.9711363184018712 0.6113958967677934 0.3886041032322066 0.10615033535741737 0.8938496646425826
8
0 1 1 0 0 1 1 0
8
0 1 1 0 1 0 0 1
8
1 0 0 1 0 1 1 0
8
0 1 1 0 1 0 0 1
8
1 0 0 1 0 1 0 1
8
0 1 0 1 0 1 0 1
8
1 0 1 0 0 1 1 0
8
1 0 0 1 0 1 0 1
8
1 0 0 1 1 0 1 0
8
0 1 0 1 0 1 1 0
8
0 1 1 0 1 0 0 1
8
1 0 1 0 0 1 1 0
8
0 1 0 1 1 0 0 1
4
0.37157695965298737 0.6284230403470127 0.1489687375262461 0.851031262473754
8
1 0 1 0 0 1 0 1
8
1 0 1 0 1 0 1 0
8
0 1 1 0 0 1 1 0
8
0 1 0 1 1 0 1 0
8
1 0 1 0 1 0 0 1
8
1 0 1 0 1 0 1 0
8
1 0 1 0 0 1 1 0
8
1 0 1 0 0 1 0 1
8
0 1 0 1 1 0 0 1
8
1 0 0 1 1 0 1 0
8
0 1 0 1 0 1 0 1
8
1 0 0 1 0 1 0 1
8
0.7667564804469114 0.23324351955308859 0.11008872105528456 0.8899112789447153 0.46420796614203197 0.535792033857968 0.5457415632018612 0.45425843679813876
8
0.3362146947648962 0.6637853052351038 0.5178625235477533 0.48213747645224675 0.4961909032526335 0.5038090967473664 0.08041238782799165 0.9195876121720084
8
1 0 0 1 1 0 1 0
8
0 1 1 0 0 1 0 1
8
1 0 0 1 0 1 1 0
8
1 0 1 0 1 0 0 1
8
1 0 1 0 0 1 1 0
8
0 1 0 1 0 1 0 1
8
0.6543674339750347 0.3456325660249653 0.44983659424652583 0.5501634057534742 0.2269169426246438 0.7730830573753562 0.3215339204370221 0.6784660795629779
8
0 1 0 1 0 1 1 0
8
0 1 0 1 0 1 1 0
8
1 0 1 0 0 1 1 0
4
1 0 0 1
8
1 0 1 0 1 0 1 0
8
0 1 0 1 0 1 0 1
8
1 0 0 1 1 0 1 0
8
1 0 0 1 0 1 1 0
8
1 0 0 1 0 1 0 1
8
1 0 1 0 0 1 1 0
8
0 1 1 0 1 0 0 1
8
0 1 0 1 0 1 0 1
8
0 1 0 1 0 1 1 0
8
1 0 1 0 0 1 1 0
8
0 1 1 0 1 0 1 0
8
1 0 0 1 1 0 1 0
8
0 1 1 0 1 0 1 0
8
1 0 1 0 0 1 1 0
8
0 1 1 0 0 1 0 1
8
0 1 1 0 1 0 0 1
8
1 0 0 1 1 0 0 1
8
0 1 0 1 0 1 1 0
8
0 1 0 1 1 0 1 0
8
1 0 1 0 0 1 1 0
8
1 0 0 1 1 0 0 1
8
1 0 0 1 0 1 1 0
8
0 1 1 0 0 1 1 0
8
1 0 0 1 0 1 1 0
4
0.5212574107873195 0.4787425892126806 0.21058480322630144 0.7894151967736986
8
1 0 1 0 0 1 0 1
8
0 1 0 1 1 0 0 1
8
0 1 1 0 0 1 1 0
8
0.3929903630112303 0.6070096369887698 0.3510804248896113 0.6489195751103887 0.3118000183086154 0.6881999816913845 0.5400648820789952 0.4599351179210048
8
0 1 1 0 0 1 0 1
8
0 1 1 0 0 1 1 0
8
0 1 1 0 0 1 0 1
8
1 0 0 1 1 0 0 1
8
0 1 0 1 0 1 0 1
8
0 1 0 1 1 0 0 1
8
1 0 1 0 1 0 1 0
8
1 0 0 1 1 0 1 0
8
0 1 1 0 0 1 1 0
8
1 0 0 1 1 0 1 0
8
0 1 1 0 1 0 1 0
8
1 0 0 1 1 0 1 0
8
0 1 0 1 0 1 0 1
8
0.3804211215057462 0.6195788784942537 0.4303613211101999 0.5696386788898001 0.3181750310786862 0.6818249689213137 0.16249866905771063 0.8375013309422895
8
0.4591412304299197 0.5408587695700802 0.043824049942515875 0.9561759500574841 0.7362310086976814 0.2637689913023186 0.2476787983352915 0.7523212016647085
8
0 1 1 0 0 1 1 0
8
0 1 0 1 0 1 1 0
8
0 1 1 0 1 0 1 0
8
1 0 0 1 1 0 1 0
8
0 1 1 0 0 1 0 1
4
1 0 1 0
8
0.2083458814652051 0.791654118534795 0.47656760924826663 0.5234323907517334 0.07254315226840886 0.9274568477315911 0.42874970252705696 0.5712502974729431
8
1 0 1 0 0 1 0 1
8
1 0 1 0 0 1 0 1
8
1 0 0 1 0 1 1 0
8
0.6887292286591582 0.31127077134084186 0.5992377081901689 0.4007622918098311 0.8178069477614739 0.18219305223852614 0.5477301445715191 0.4522698554284809
8
0 1 1 0 0 1 0 1
8
0 1 0 1 0 1 0 1
8
1 0 0 1 0 1 0 1
8
1 0 0 1 1 0 1 0
8
0 1 1 0 1 0 1 0
8
0.5164034311362983 0.48359656886370167 0.7796178250327345 0.22038217496726553 0.718787349942213 0.2812126500577869 0.9964176162052755 0.0035823837947245077
8
0 1 0 1 0 1 1 0
8
1 0 1 0 1 0 0 1
8
1 0 1 0 1 0 1 0
8
1 0 1 0 0 1 1 0
8
1 0 0 1 1 0 1 0
8
0 1 0 1 1 0 0 1
8
1 0 0 1 1 0 1 0
8
1 0 1 0 0 1 0 1
8
0.9826243034824482 0.017375696517551723 0.3853602321487777 0.6146397678512223 0.3554274590489339 0.6445725409510661 0.4721670163721097 0.5278329836278902
8
1 0 1 0 1 0 1 0
8
1 0 0 1 0 1 0 1
8
1 0 1 0 1 0 0 1
8
0 1 1 0 1 0 0 1
4
0.5770868806320041 0.4229131193679959 0.3245286310495165 0.6754713689504834
8
1 0 1 0 0 1 0 1
8
0.26297294381596287 0.7370270561840371 0.39023221354877374 0.6097677864512263 0.001657214508756074 0.9983427854912439 0.7308915276955231 0.26910847230447693
8
0 1 1 0 1 0 1 0
8
1 0 0 1 1 0 1 0
8
0 1 0 1 0 1 1 0
8
0 1 1 0 1 0 1 0
8
1 0 0 1 1 0 0 1
8
0 1 1 0 1 0 0 1
8
0 1 1 0 1 0 1 0
8
0 1 0 1 1 0 0 1
8
1 0 0 1 0 1 1 0
8
1 0 0 1 1 0 1 0
8
0.882006706088336 0.11799329391166406 0.4570919370640006 0.5429080629359995 0.8147492675263092 0.185250732473691 0.7464986487538955 0.2535013512461045
8
0 1 1 0 0 1 1 0
8
0 1 0 1 0 1 0 1
8
0 1 1 0 0 1 1 0
8
1 0 1 0 1 0 1 0
8
1 0 1 0 0 1 1 0
8
1 0 0 1 1 0 0 1
8
1 0 0 1 0 1 1 0
8
0 1 1 0 1 0 1 0
8
0 1 1 0 0 1 1 0
8
0 1 0 1 1 0 0 1
8
0 1 0 1 1 0 0 1
4
1 0 0 1
8
0 1 1 0 0 1 0 1
8
0 1 0 1 1 0 1 0
8
0 1 0 1 1 0 0 1
8
0 1 1 0 0 1 1 0
8
0 1 1 0 1 0 1 0
8
1 0 1 0 0 1 0 1
8
1 0 0 1 1 0 0 1
8
1 0 0 1 1 0 0 1
8
0 1 0 1 1 0 1 0
8
0.00034933233505830016 0.9996506676649417 0.34451247793815964 0.6554875220618405 0.8305317079375679 0.1694682920624321 0.6845180929265352 0.3154819070734647
8
1 0 0 1 1 0 0 1
8
1 0 0 1 1 0 0 1
8
0 1 1 0 0 1 0 1
8
0.6843512145837964 0.3156487854162035 0.49587890117662536 0.5041210988233746 0.4201726041144717 0.5798273958855283 0.6901616160665203 0.3098383839334797
8
0 1 0 1 0 1 0 1
8
0 1 1 0 0 1 0 1
8
0 1 0 1 0 1 1 0
8
1 0 1 0 0 1 1 0
8
1 0 0 1 1 0 0 1
8
0.5673259592151694 0.43267404078483057 0.20882589964671722 0.7911741003532828 0.5887420873542777 0.4112579126457224 0.39952789948413253 0.6004721005158675
8
0 1 1 0 1 0 1 0
8
1 0 1 0 0 1 0 1
8
0 1 0 1 1 0 0 1
8
0 1 0 1 0 1 0 1
4
1 0 1 0
8
1 0 1 0 1 0 0 1
8
1 0 1 0 1 0 1 0
8
0.2658149384538557 0.7341850615461443 0.8968654857070254 0.10313451429297457 0.4923335342230532 0.5076664657769469 0.4903492276731634 0.5096507723268366
8
1 0 0 1 1 0 0 1
8
0.5515444865028132 0.4484555134971868 0.44894485640093224 0.5510551435990677 0.49420108818679903 0.505798911813201 0.011711324477385588 0.9882886755226145
8
1 0 1 0 1 0 0 1
8
0.18094231453920476 0.8190576854607953 0.2668972390250329 0.7331027609749672 0.4178448615838076 0.5821551384161925 0.6242748108812943 0.37572518911870556
8
0.6175619442215975 0.38243805577840245 0.17182820896546414 0.8281717910345359 0.5537483326166724 0.4462516673833276 0.669554867166276 0.33044513283372406
8
1 0 0 1 0 1 1 0
8
0.7244530172040774 0.2755469827959226 0.49686118452226313 0.5031388154777369 0.44229801453337947 0.5577019854666206 0.2742272678046325 0.7257727321953674
8
1 0 1 0 1 0 1 0
8
1 0 0 1 0 1 0 1
8
0 1 1 0 1 0 1 0
8
1 0 0 1 1 0 1 0
8
0 1 1 0 1 0 1 0
8
0 1 0 1 0 1 0 1
8
0 1 0 1 1 0 1 0
8
1 0 0 1 1 0 1 0
8
1 0 0 1 0 1 0 1
8
1 0 0 1 0 1 1 0
8
1 0 0 1 0 1 0 1
8
0 1 0 1 1 0 0 1
8
0.2958546796715071 0.704145320328493 0.679618047739937 0.32038195226006294 0.6444526235866918 0.3555473764133083 0.40210368278418274 0.5978963172158173
8
0 1 1 0 1 0 1 0
4
0 1 0 1
8
0 1 0 1 1 0 1 0
8
0 1 0 1 1 0 0 1
8
1 0 1 0 0 1 1 0
8
1 0 1 0 0 1 0 1
8
0 1 1 0 1 0 0 1
8
0.7028006084473112 0.2971993915526888 0.707225606709418 0.292774393290582 0.829510092062063 0.17048990793793692 0.7144538175549126 0.28554618244508745
8
0 1 0 1 1 0 1 0
8
0 1 0 1 1 0 1 0
8
0 1 1 0 0 1 1 0
8
1 0 0 1 1 0 0 1
8
1 0 0 1 0 1 1 0
8
0.5623223891494711 0.43767761085052886 0.15150934575977076 0.8484906542402293 0.3852736936861372 0.6147263063138628 0.5525477603773735 0.4474522396226266
8
0 1 0 1 0 1 0 1
8
1 0 1 0 0 1 0 1
8
1 0 1 0 1 0 0 1
8
1 0 0 1 0 1 1 0
8
0 1 0 1 0 1 0 1
8
1 0 0 1 0 1 0 1
8
0 1 0 1 0 1 0 1
8
1 0 0 1 1 0 1 0
8
1 0 1 0 1 0 1 0
8
0 1 1 0 0 1 1 0
8
0 1 0 1 1 0 1 0
8
0 1 1 0 0 1 0 1
4
1 0 1 0
8
0 1 0 1 0 1 0 1
8
0 1 1 0 1 0 1 0
8
0 1 1 0 1 0 0 1
8
0 1 1 0 1 0 0 1
8
1 0 0 1 1 0 1 0
8
1 0 0 1 0 1 0 1
8
0.5915806769611361 0.4084193230388639 0.09637940841486475 0.9036205915851353 0.0003709493039770246 0.9996290506960229 0.6483981105540689 0.3516018894459311
8
1 0 0 1 0 1 1 0
8
0 1 1 0 1 0 0 1
8
1 0 1 0 0 1 0 1
8
1 0 0 1 0 1 0 1
8
0 1 1 0 1 0 1 0
8
1 0 0 1 1 0 0 1
8
0 1 0 1 0 1 1 0
8
0 1 0 1 0 1 1 0
8
1 0 1 0 1 0 1 0
8
0 1 0 1 0 1 1 0
8
1 0 0 1 0 1 1 0
8
1 0 0 1 0 1 0 1
8
0.6035679767473331 0.39643202325266685 0.6427984241577068 0.3572015758422931 0.42287693237025925 0.5771230676297407 0.6370235906146733 0.36297640938532677
8
1 0 1 0 1 0 1 0
8
0 1 1 0 1 0 1 0
8
0 1 1 0 1 0 1 0
8
1 0 0 1 1 0 0 1
4
0 1 0 1
4
1 0 1 0
4
0 1 0 1
4
0 1 0 1
4
1 0 1 0
4
1 0 1 0
4
0.39837632485933866 0.6016236751406614 0.15883226973618533 0.8411677302638146
4
0 1 0 1
4
1 0 1 0
4
1 0 0 1
4
1 0 1 0
4
1 0 1 0
4
0 1 0 1
4
0 1 0 1
4
0 1 0 1
4
1 0 1 0
4
0 1 1 0
4
0 1 1 0
4
0 1 1 0
4
0.4137602210305184 0.5862397789694815 0.5897282746320271 0.4102717253679728
4
0.4039684820761 0.5960315179239 0.565821485218789 0.43417851478121094
4
0 1 1 0
4
1 0 0 1
4
0 1 1 0
4
0 1 1 0
2
0 1
